alu/formal/model/design_smt2.smt2
; SMT-LIBv2 description generated by Yosys 0.33 (git sha1 2584903a060)
; yosys-smt2-module alu
(declare-sort |alu_s| 0)
(declare-fun |alu_is| (|alu_s|) Bool)
(declare-fun |alu#0| (|alu_s|) (_ BitVec 1)) ; \a [0]
(declare-fun |alu#1| (|alu_s|) (_ BitVec 1)) ; \b [0]
(define-fun |alu#2| ((state |alu_s|)) Bool (= (|alu#0| state) (|alu#1| state))) ; $eq$alu.v:73$57_Y
(define-fun |alu#3| ((state |alu_s|)) (_ BitVec 1) (ite (|alu#2| state) #b1 #b0)) ; $auto$wreduce.cc:461:run$107 [0]
(define-fun |alu#4| ((state |alu_s|)) Bool (distinct (|alu#0| state) (|alu#1| state))) ; $ne$alu.v:71$55_Y
(define-fun |alu#5| ((state |alu_s|)) (_ BitVec 1) (ite (|alu#4| state) #b1 #b0)) ; $auto$wreduce.cc:461:run$106 [0]
(define-fun |alu#6| ((state |alu_s|)) Bool (bvugt (|alu#0| state) (|alu#1| state))) ; $gt$alu.v:69$53_Y
(define-fun |alu#7| ((state |alu_s|)) (_ BitVec 1) (ite (|alu#6| state) #b1 #b0)) ; $auto$wreduce.cc:461:run$105 [0]
(define-fun |alu#8| ((state |alu_s|)) Bool (bvult (|alu#0| state) (|alu#1| state))) ; $lt$alu.v:67$51_Y
(define-fun |alu#9| ((state |alu_s|)) (_ BitVec 1) (ite (|alu#8| state) #b1 #b0)) ; $auto$wreduce.cc:461:run$104 [0]
(define-fun |alu#10| ((state |alu_s|)) (_ BitVec 1) (bvxor (|alu#0| state) (|alu#1| state))) ; $auto$wreduce.cc:461:run$108 [0]
(define-fun |alu#11| ((state |alu_s|)) (_ BitVec 65) (bvnot (concat #b0000000000000000000000000000000000000000000000000000000000000000 (|alu#10| state)))) ; $not$alu.v:65$50_Y
(define-fun |alu#12| ((state |alu_s|)) (_ BitVec 1) (bvor (|alu#0| state) (|alu#1| state))) ; $or$alu.v:57$43_Y [0]
(define-fun |alu#13| ((state |alu_s|)) (_ BitVec 65) (bvnot (concat #b0000000000000000000000000000000000000000000000000000000000000000 (|alu#12| state)))) ; $not$alu.v:63$48_Y
(define-fun |alu#14| ((state |alu_s|)) (_ BitVec 1) (bvand (|alu#0| state) (|alu#1| state))) ; $and$alu.v:55$42_Y
(define-fun |alu#15| ((state |alu_s|)) (_ BitVec 65) (bvnot (concat #b0000000000000000000000000000000000000000000000000000000000000000 (|alu#14| state)))) ; $not$alu.v:61$46_Y
(define-fun |alu#16| ((state |alu_s|)) Bool (not (or  (= ((_ extract 0 0) (|alu#1| state)) #b1) false))) ; $auto$wreduce.cc:461:run$95 [0]
(define-fun |alu#17| ((state |alu_s|)) (_ BitVec 1) (bvor (|alu#0| state) (ite (|alu#16| state) #b1 #b0))) ; $auto$wreduce.cc:461:run$98 [0]
(define-fun |alu#18| ((state |alu_s|)) Bool (not (or  (= ((_ extract 0 0) (|alu#0| state)) #b1) false))) ; $auto$wreduce.cc:461:run$96 [0]
(define-fun |alu#19| ((state |alu_s|)) (_ BitVec 1) (bvor (ite (|alu#18| state) #b1 #b0) (|alu#1| state))) ; $or$alu.v:51$34_Y [0]
(define-fun |alu#20| ((state |alu_s|)) (_ BitVec 1) (bvor (|alu#17| state) (|alu#19| state))) ; $or$alu.v:53$40_Y
(define-fun |alu#21| ((state |alu_s|)) Bool (not (or  (= ((_ extract 0 0) (|alu#20| state)) #b1) false))) ; $auto$wreduce.cc:461:run$97 [0]
(define-fun |alu#22| ((state |alu_s|)) (_ BitVec 1) (bvand (|alu#17| state) (|alu#19| state))) ; $and$alu.v:51$35_Y
(declare-fun |alu#23| (|alu_s|) (_ BitVec 64)) ; \a [64:1]
(declare-fun |alu#24| (|alu_s|) (_ BitVec 64)) ; \b [64:1]
(define-fun |alu#25| ((state |alu_s|)) Bool (bvule (concat (|alu#23| state) (|alu#0| state)) (concat (|alu#24| state) (|alu#1| state)))) ; $le$alu.v:49$29_Y
(define-fun |alu#26| ((state |alu_s|)) (_ BitVec 1) (ite (|alu#25| state) #b1 #b0)) ; $ternary$alu.v:49$30_Y [0]
(define-fun |alu#27| ((state |alu_s|)) Bool (bvuge (concat (|alu#23| state) (|alu#0| state)) (concat (|alu#24| state) (|alu#1| state)))) ; $ge$alu.v:47$27_Y
(define-fun |alu#28| ((state |alu_s|)) (_ BitVec 1) (ite (|alu#27| state) #b1 #b0)) ; $auto$wreduce.cc:461:run$103 [0]
(define-fun |alu#29| ((state |alu_s|)) Bool (= (concat (|alu#23| state) (|alu#0| state)) (concat (|alu#24| state) (|alu#1| state)))) ; $eq$alu.v:45$25_Y
(define-fun |alu#30| ((state |alu_s|)) (_ BitVec 1) (ite (|alu#29| state) #b1 #b0)) ; $auto$wreduce.cc:461:run$102 [0]
(define-fun |alu#31| ((state |alu_s|)) Bool (distinct (concat (|alu#23| state) (|alu#0| state)) (concat (|alu#24| state) (|alu#1| state)))) ; $ne$alu.v:43$23_Y
(define-fun |alu#32| ((state |alu_s|)) (_ BitVec 1) (ite (|alu#31| state) #b1 #b0)) ; $auto$wreduce.cc:461:run$101 [0]
(define-fun |alu#33| ((state |alu_s|)) Bool (bvugt (concat (|alu#23| state) (|alu#0| state)) (concat (|alu#24| state) (|alu#1| state)))) ; $gt$alu.v:41$21_Y
(define-fun |alu#34| ((state |alu_s|)) (_ BitVec 1) (ite (|alu#33| state) #b1 #b0)) ; $auto$wreduce.cc:461:run$100 [0]
(define-fun |alu#35| ((state |alu_s|)) Bool (bvult (concat (|alu#23| state) (|alu#0| state)) (concat (|alu#24| state) (|alu#1| state)))) ; $lt$alu.v:39$19_Y
(define-fun |alu#36| ((state |alu_s|)) (_ BitVec 1) (ite (|alu#35| state) #b1 #b0)) ; $auto$wreduce.cc:461:run$99 [0]
(define-fun |alu#37| ((state |alu_s|)) (_ BitVec 65) (bvxor (concat (|alu#23| state) (|alu#0| state)) (concat (|alu#24| state) (|alu#1| state)))) ; $xor$alu.v:31$12_Y
(define-fun |alu#38| ((state |alu_s|)) (_ BitVec 65) (bvnot (|alu#37| state))) ; $not$alu.v:37$18_Y
(define-fun |alu#39| ((state |alu_s|)) (_ BitVec 65) (bvor (concat (|alu#23| state) (|alu#0| state)) (concat (|alu#24| state) (|alu#1| state)))) ; $or$alu.v:29$11_Y
(define-fun |alu#40| ((state |alu_s|)) (_ BitVec 65) (bvnot (|alu#39| state))) ; $not$alu.v:35$16_Y
(define-fun |alu#41| ((state |alu_s|)) (_ BitVec 65) (bvand (concat (|alu#23| state) (|alu#0| state)) (concat (|alu#24| state) (|alu#1| state)))) ; $and$alu.v:27$10_Y
(define-fun |alu#42| ((state |alu_s|)) (_ BitVec 65) (bvnot (|alu#41| state))) ; $not$alu.v:33$14_Y
(define-fun |alu#43| ((state |alu_s|)) (_ BitVec 65) (bvshl (concat (|alu#23| state) (|alu#0| state)) (concat (|alu#24| state) (|alu#1| state)))) ; $sshl$alu.v:25$9_Y
(define-fun |alu#44| ((state |alu_s|)) (_ BitVec 65) (bvlshr (concat (|alu#23| state) (|alu#0| state)) (concat (|alu#24| state) (|alu#1| state)))) ; $sshr$alu.v:23$8_Y
(define-fun |alu#45| ((state |alu_s|)) (_ BitVec 65) (bvlshr (concat (|alu#23| state) (|alu#0| state)) (concat (|alu#24| state) (|alu#1| state)))) ; $shr$alu.v:21$7_Y
(define-fun |alu#46| ((state |alu_s|)) (_ BitVec 65) (bvshl (concat (|alu#23| state) (|alu#0| state)) (concat (|alu#24| state) (|alu#1| state)))) ; $shl$alu.v:19$6_Y
(define-fun |alu#47| ((state |alu_s|)) (_ BitVec 65) (bvudiv (concat (|alu#23| state) (|alu#0| state)) (concat (|alu#24| state) (|alu#1| state)))) ; $div$alu.v:17$5_Y
(define-fun |alu#48| ((state |alu_s|)) (_ BitVec 65) (bvmul (concat (|alu#23| state) (|alu#0| state)) (concat (|alu#24| state) (|alu#1| state)))) ; $mul$alu.v:15$4_Y
(define-fun |alu#49| ((state |alu_s|)) (_ BitVec 65) (bvsub (concat (|alu#23| state) (|alu#0| state)) (concat (|alu#24| state) (|alu#1| state)))) ; $sub$alu.v:13$3_Y
(define-fun |alu#50| ((state |alu_s|)) (_ BitVec 65) (bvadd (concat (|alu#23| state) (|alu#0| state)) (concat (|alu#24| state) (|alu#1| state)))) ; $add$alu.v:11$2_Y
(declare-fun |alu#51| (|alu_s|) (_ BitVec 6)) ; \op
(define-fun |alu#52| ((state |alu_s|)) Bool (= (|alu#51| state) #b011111)) ; $procmux$61_CMP
(define-fun |alu#53| ((state |alu_s|)) Bool (= (|alu#51| state) #b011110)) ; $procmux$62_CMP
(define-fun |alu#54| ((state |alu_s|)) Bool (= (|alu#51| state) #b011101)) ; $procmux$63_CMP
(define-fun |alu#55| ((state |alu_s|)) Bool (= (|alu#51| state) #b011100)) ; $procmux$64_CMP
(define-fun |alu#56| ((state |alu_s|)) Bool (= (|alu#51| state) #b011011)) ; $procmux$65_CMP
(define-fun |alu#57| ((state |alu_s|)) Bool (= (|alu#51| state) #b011010)) ; $procmux$66_CMP
(define-fun |alu#58| ((state |alu_s|)) Bool (= (|alu#51| state) #b011001)) ; $procmux$67_CMP
(define-fun |alu#59| ((state |alu_s|)) Bool (= (|alu#51| state) #b011000)) ; $procmux$68_CMP
(define-fun |alu#60| ((state |alu_s|)) Bool (= (|alu#51| state) #b010111)) ; $procmux$69_CMP
(define-fun |alu#61| ((state |alu_s|)) Bool (= (|alu#51| state) #b010110)) ; $procmux$70_CMP
(define-fun |alu#62| ((state |alu_s|)) Bool (= (|alu#51| state) #b010101)) ; $procmux$71_CMP
(define-fun |alu#63| ((state |alu_s|)) Bool (= (|alu#51| state) #b010100)) ; $procmux$72_CMP
(define-fun |alu#64| ((state |alu_s|)) Bool (= (|alu#51| state) #b010011)) ; $procmux$73_CMP
(define-fun |alu#65| ((state |alu_s|)) Bool (= (|alu#51| state) #b010010)) ; $procmux$74_CMP
(define-fun |alu#66| ((state |alu_s|)) Bool (= (|alu#51| state) #b010001)) ; $procmux$75_CMP
(define-fun |alu#67| ((state |alu_s|)) Bool (= (|alu#51| state) #b010000)) ; $procmux$76_CMP
(define-fun |alu#68| ((state |alu_s|)) Bool (= (|alu#51| state) #b001111)) ; $procmux$77_CMP
(define-fun |alu#69| ((state |alu_s|)) Bool (= (|alu#51| state) #b001110)) ; $procmux$78_CMP
(define-fun |alu#70| ((state |alu_s|)) Bool (= (|alu#51| state) #b001101)) ; $procmux$79_CMP
(define-fun |alu#71| ((state |alu_s|)) Bool (= (|alu#51| state) #b001100)) ; $procmux$80_CMP
(define-fun |alu#72| ((state |alu_s|)) Bool (= (|alu#51| state) #b001011)) ; $procmux$81_CMP
(define-fun |alu#73| ((state |alu_s|)) Bool (= (|alu#51| state) #b001010)) ; $procmux$82_CMP
(define-fun |alu#74| ((state |alu_s|)) Bool (= (|alu#51| state) #b001001)) ; $procmux$83_CMP
(define-fun |alu#75| ((state |alu_s|)) Bool (= (|alu#51| state) #b001000)) ; $procmux$84_CMP
(define-fun |alu#76| ((state |alu_s|)) Bool (= (|alu#51| state) #b000111)) ; $procmux$85_CMP
(define-fun |alu#77| ((state |alu_s|)) Bool (= (|alu#51| state) #b000110)) ; $procmux$86_CMP
(define-fun |alu#78| ((state |alu_s|)) Bool (= (|alu#51| state) #b000101)) ; $procmux$87_CMP
(define-fun |alu#79| ((state |alu_s|)) Bool (= (|alu#51| state) #b000100)) ; $procmux$88_CMP
(define-fun |alu#80| ((state |alu_s|)) Bool (= (|alu#51| state) #b000011)) ; $procmux$89_CMP
(define-fun |alu#81| ((state |alu_s|)) Bool (= (|alu#51| state) #b000010)) ; $procmux$90_CMP
(define-fun |alu#82| ((state |alu_s|)) Bool (= (|alu#51| state) #b000001)) ; $procmux$91_CMP
(define-fun |alu#83| ((state |alu_s|)) Bool (not (or  (= ((_ extract 0 0) (|alu#51| state)) #b1) (= ((_ extract 1 1) (|alu#51| state)) #b1) (= ((_ extract 2 2) (|alu#51| state)) #b1) (= ((_ extract 3 3) (|alu#51| state)) #b1) (= ((_ extract 4 4) (|alu#51| state)) #b1) (= ((_ extract 5 5) (|alu#51| state)) #b1)))) ; $procmux$92_CMP
(define-fun |alu#84| ((state |alu_s|)) (_ BitVec 65) (ite (|alu#83| state) (|alu#50| state) (ite (|alu#82| state) (|alu#49| state) (ite (|alu#81| state) (|alu#48| state) (ite (|alu#80| state) (|alu#47| state) (ite (|alu#79| state) (|alu#46| state) (ite (|alu#78| state) (|alu#45| state) (ite (|alu#77| state) (|alu#44| state) (ite (|alu#76| state) (|alu#43| state) (ite (|alu#75| state) (|alu#41| state) (ite (|alu#74| state) (|alu#39| state) (ite (|alu#73| state) (|alu#37| state) (ite (|alu#72| state) (|alu#42| state) (ite (|alu#71| state) (|alu#40| state) (ite (|alu#70| state) (|alu#38| state) (ite (|alu#69| state) (concat #b0000000000000000000000000000000000000000000000000000000000000000 (|alu#36| state)) (ite (|alu#68| state) (concat #b0000000000000000000000000000000000000000000000000000000000000000 (|alu#34| state)) (ite (|alu#67| state) (concat #b0000000000000000000000000000000000000000000000000000000000000000 (|alu#32| state)) (ite (|alu#66| state) (concat #b0000000000000000000000000000000000000000000000000000000000000000 (|alu#30| state)) (ite (|alu#65| state) (concat #b0000000000000000000000000000000000000000000000000000000000000000 (|alu#28| state)) (ite (|alu#64| state) (concat #b0000000000000000000000000000000000000000000000000000000000000000 (|alu#26| state)) (ite (|alu#63| state) (concat #b0000000000000000000000000000000000000000000000000000000000000000 (|alu#22| state)) (ite (|alu#62| state) (concat #b0000000000000000000000000000000000000000000000000000000000000000 (ite (|alu#21| state) #b1 #b0)) (ite (|alu#61| state) (concat #b0000000000000000000000000000000000000000000000000000000000000000 (|alu#14| state)) (ite (|alu#60| state) (concat #b0000000000000000000000000000000000000000000000000000000000000000 (|alu#12| state)) (ite (|alu#59| state) (concat #b0000000000000000000000000000000000000000000000000000000000000000 (|alu#10| state)) (ite (|alu#58| state) (|alu#15| state) (ite (|alu#57| state) (|alu#13| state) (ite (|alu#56| state) (|alu#11| state) (ite (|alu#55| state) (concat #b0000000000000000000000000000000000000000000000000000000000000000 (|alu#9| state)) (ite (|alu#54| state) (concat #b0000000000000000000000000000000000000000000000000000000000000000 (|alu#7| state)) (ite (|alu#53| state) (concat #b0000000000000000000000000000000000000000000000000000000000000000 (|alu#5| state)) (ite (|alu#52| state) (concat #b0000000000000000000000000000000000000000000000000000000000000000 (|alu#3| state)) #b00000000000000000000000000000000000000000000000000000000000000000))))))))))))))))))))))))))))))))) ; \result
; yosys-smt2-output result 65
; yosys-smt2-wire result 65
(define-fun |alu_n result| ((state |alu_s|)) (_ BitVec 65) (|alu#84| state))
; yosys-smt2-input op 6
; yosys-smt2-wire op 6
; yosys-smt2-witness {"offset": 0, "path": ["\\op"], "smtname": "op", "smtoffset": 0, "type": "input", "width": 6}
(define-fun |alu_n op| ((state |alu_s|)) (_ BitVec 6) (|alu#51| state))
; yosys-smt2-input b 65
; yosys-smt2-wire b 65
; yosys-smt2-witness {"offset": 0, "path": ["\\b"], "smtname": "b", "smtoffset": 0, "type": "input", "width": 65}
(define-fun |alu_n b| ((state |alu_s|)) (_ BitVec 65) (concat (|alu#24| state) (|alu#1| state)))
; yosys-smt2-input a 65
; yosys-smt2-wire a 65
; yosys-smt2-witness {"offset": 0, "path": ["\\a"], "smtname": "a", "smtoffset": 0, "type": "input", "width": 65}
(define-fun |alu_n a| ((state |alu_s|)) (_ BitVec 65) (concat (|alu#23| state) (|alu#0| state)))
(define-fun |alu_a| ((state |alu_s|)) Bool true)
(define-fun |alu_u| ((state |alu_s|)) Bool true)
(define-fun |alu_i| ((state |alu_s|)) Bool true)
(define-fun |alu_h| ((state |alu_s|)) Bool true)
(define-fun |alu_t| ((state |alu_s|) (next_state |alu_s|)) Bool true) ; end of module alu
; yosys-smt2-topmod alu
; end of yosys output
